letting grid be 8
letting starcount be 1
letting numblocks be 8


letting blocks be 
[
    [1,2,3,3,3,3,3,3],
    [1,2,3,3,3,3,3,3],
    [2,2,4,3,3,3,3,3],
    [4,2,4,4,5,3,6,3],
    [4,2,4,4,5,6,6,3],
    [4,4,4,4,5,5,6,3],
    [4,4,4,5,5,7,6,6],
    [4,8,8,5,7,7,7,7]
]

